minizinc/sudoku_problems2/sudoku_p61.dzn
%
% sudoku_p61.dzn
% See http://www.hakank.org/minizinc/sudoku_gcc.mzn
% 
% This problem is problem 61 from
% Gecode's sudoku.cpp
% http://www.gecode.org/gecode-doc-latest/sudoku_8cpp-source.html
% 
x = array2d(1..n, 1..n, [   
% http://janko.at/Raetsel/Sudoku/508.a.htm
% 61
 13,  _, 11,  _,  8,  _,  4,  _,  _,  5, 16,  _,  _,  2,  _,  9,
  _, 12,  _,  _,  6,  _,  3,  _,  _,  _, 13,  1,  _,  7, 11,  _,
 16, 14,  4,  _, 11,  _,  _,  5,  2, 10,  _,  _, 15, 13,  _, 12,
  _,  _,  7,  _,  2,  _,  _, 14,  _, 15,  9,  _,  _,  _,  _,  _,
  _,  2,  _,  _,  4,  _,  _,  _,  _,  3,  _, 13,  9, 16, 14, 15,
  4,  3,  _,  7,  _,  _, 10,  _,  _,  8,  _,  _,  _,  _,  _,  _,
  5,  _, 10, 11, 16, 13,  _, 15,  _,  _,  1,  _,  _,  _,  3,  7,
  _,  _, 14,  _,  _,  _,  _,  _,  _,  7,  _,  _,  6, 11,  _,  _,
  _,  _,  2, 14,  _,  _, 16,  _,  _,  _,  _,  _,  _,  3,  _,  _,
 12,  5,  _,  _,  _, 11,  _,  _, 13,  _, 15,  9,  7,  1,  _,  8,
  _,  _,  _,  _,  _,  _,  5,  _,  _,  2,  _,  _, 12,  _, 16, 14,
  3,  4,  8, 16, 13,  _, 12,  _,  _,  _,  _,  7,  _,  _,  5,  _,
  _,  _,  _,  _,  _,  9,  1,  _,  8,  _,  _, 15,  _,  6,  _,  _,
  1,  _, 16,  2,  _,  _, 15,  6,  5,  _,  _, 14,  _,  8,  9, 11,
  _,  8, 12,  _,  5,  4,  _,  _,  _,  1,  _, 16,  _,  _, 15,  _,
 15,  _,  5,  _,  _,  8,  7,  _,  _,  9,  _, 10,  _, 12,  _,  1
]);

n = 16;


